RAW/D/fspd-mid/SCA8-7.vrpspd_seed-8.out
1051.2786	66.9	91.442
